c An instance of conditional planning (by rintanen@informatik.uni-freiburg.de)
p cnf 260 1219
e 138 139 140 141 142 143 144 145 146 147 148 149 150 151 152 153 154 155 156 157 158 159 160 161 162 163 164 165 166 167 168 169 170 171 172 173 174 175 176 177 178 179 180 181 182 183 184 185 186 187 188 189 190 191 192 193 194 195 196 197 198 199 200 201 202 203 204 205 206 207 208 209 210 211 212 213 214 215 216 217 218 219 220 221 222 223 224 225 0
a 238 237 236 239 0
e 1 2 3 4 5 6 7 8 9 10 11 12 13 14 15 16 17 18 19 20 21 22 23 24 25 26 27 28 29 30 31 32 33 34 35 36 37 38 39 40 41 42 43 44 45 46 47 48 49 50 51 52 53 54 55 56 57 58 59 60 61 62 63 64 65 66 67 68 69 70 71 72 73 74 75 76 77 78 79 80 81 82 83 84 85 86 87 88 89 90 91 92 93 94 95 96 97 98 99 100 101 102 103 104 105 106 107 108 109 110 111 112 113 114 115 116 117 118 119 120 121 122 123 124 125 126 127 128 129 130 131 132 133 134 135 136 137 226 227 228 229 230 231 232 233 234 235 240 241 242 243 244 245 246 247 248 249 250 251 252 253 254 255 256 257 258 259 260 0
-238 -240 236 237 239 0
-238 -241 236 237 239 0
-238 -242 236 237 239 0
-238 -243 236 237 239 0
-238 -244 236 237 239 0
-238 -245 236 237 239 0
-238 -246 236 237 239 0
-238 236 237 239 247 0
-238 -248 236 237 239 0
-238 -249 236 237 239 0
-236 -237 -239 -240 238 0
-236 -237 -239 -241 238 0
-236 -237 -239 -242 238 0
-236 -237 -239 -243 238 0
-236 -237 -239 -244 238 0
-236 -237 -239 -245 238 0
-236 -237 -239 238 246 0
-236 -237 -239 -247 238 0
-236 -237 -239 -248 238 0
-236 -237 -239 -249 238 0
-236 -237 -240 238 239 0
-236 -237 -241 238 239 0
-236 -237 -242 238 239 0
-236 -237 -243 238 239 0
-236 -237 -244 238 239 0
-236 -237 238 239 245 0
-236 -237 -246 238 239 0
-236 -237 -247 238 239 0
-236 -237 -248 238 239 0
-236 -237 -249 238 239 0
-237 -239 -240 236 238 0
-237 -239 -241 236 238 0
-237 -239 -242 236 238 0
-237 -239 -243 236 238 0
-237 -239 236 238 244 0
-237 -239 -245 236 238 0
-237 -239 -246 236 238 0
-237 -239 -247 236 238 0
-237 -239 -248 236 238 0
-237 -239 -249 236 238 0
-237 -240 236 238 239 0
-237 -241 236 238 239 0
-237 -242 236 238 239 0
-237 236 238 239 243 0
-237 -244 236 238 239 0
-237 -245 236 238 239 0
-237 -246 236 238 239 0
-237 -247 236 238 239 0
-237 -248 236 238 239 0
-237 -249 236 238 239 0
-236 -239 -240 237 238 0
-236 -239 -241 237 238 0
-236 -239 237 238 242 0
-236 -239 -243 237 238 0
-236 -239 -244 237 238 0
-236 -239 -245 237 238 0
-236 -239 -246 237 238 0
-236 -239 -247 237 238 0
-236 -239 -248 237 238 0
-236 -239 -249 237 238 0
-236 -240 237 238 239 0
-236 237 238 239 241 0
-236 -242 237 238 239 0
-236 -243 237 238 239 0
-236 -244 237 238 239 0
-236 -245 237 238 239 0
-236 -246 237 238 239 0
-236 -247 237 238 239 0
-236 -248 237 238 239 0
-236 -249 237 238 239 0
-239 236 237 238 240 0
-239 -241 236 237 238 0
-239 -242 236 237 238 0
-239 -243 236 237 238 0
-239 -244 236 237 238 0
-239 -245 236 237 238 0
-239 -246 236 237 238 0
-239 -247 236 237 238 0
-239 -248 236 237 238 0
-239 -249 236 237 238 0
-240 236 237 238 239 0
-241 236 237 238 239 0
-242 236 237 238 239 0
-243 236 237 238 239 0
-244 236 237 238 239 0
-245 236 237 238 239 0
-246 236 237 238 239 0
-247 236 237 238 239 0
-248 236 237 238 239 0
236 237 238 239 249 0
-238 -239 -240 236 237 0
-238 -239 -241 236 237 0
-238 -239 -242 236 237 0
-238 -239 -243 236 237 0
-238 -239 -244 236 237 0
-238 -239 -245 236 237 0
-238 -239 -246 236 237 0
-238 -239 -247 236 237 0
-238 -239 236 237 248 0
-238 -239 -249 236 237 0
-250 0
-251 0
-252 0
-253 0
-254 0
-255 0
-256 0
-257 0
-258 0
-259 0
-260 0
-138 -260 0
-138 -250 0
-8 -139 0
-1 -139 0
-9 -140 0
-2 -140 0
-10 -141 0
-3 -141 0
-11 -142 0
-4 -142 0
-12 -143 0
-5 -143 0
-13 -144 0
-6 -144 0
-146 -251 0
-146 -260 0
-21 -147 0
-8 -147 0
-22 -148 0
-9 -148 0
-23 -149 0
-10 -149 0
-24 -150 0
-11 -150 0
-25 -151 0
-12 -151 0
-26 -152 0
-13 -152 0
-154 -252 0
-154 -260 0
-34 -155 0
-8 -155 0
-35 -156 0
-9 -156 0
-36 -157 0
-10 -157 0
-37 -158 0
-11 -158 0
-38 -159 0
-12 -159 0
-39 -160 0
-13 -160 0
-162 -253 0
-162 -260 0
-47 -163 0
-8 -163 0
-48 -164 0
-9 -164 0
-49 -165 0
-10 -165 0
-50 -166 0
-11 -166 0
-51 -167 0
-12 -167 0
-52 -168 0
-13 -168 0
-170 -254 0
-170 -260 0
-60 -171 0
-8 -171 0
-61 -172 0
-9 -172 0
-62 -173 0
-10 -173 0
-63 -174 0
-11 -174 0
-64 -175 0
-12 -175 0
-65 -176 0
-13 -176 0
-178 -255 0
-178 -260 0
-73 -179 0
-8 -179 0
-74 -180 0
-9 -180 0
-75 -181 0
-10 -181 0
-76 -182 0
-11 -182 0
-77 -183 0
-12 -183 0
-78 -184 0
-13 -184 0
-186 -256 0
-186 -260 0
-86 -187 0
-8 -187 0
-87 -188 0
-9 -188 0
-88 -189 0
-10 -189 0
-89 -190 0
-11 -190 0
-90 -191 0
-12 -191 0
-91 -192 0
-13 -192 0
-194 -257 0
-194 -260 0
-99 -195 0
-8 -195 0
-100 -196 0
-9 -196 0
-101 -197 0
-10 -197 0
-102 -198 0
-11 -198 0
-103 -199 0
-12 -199 0
-104 -200 0
-13 -200 0
-202 -258 0
-202 -260 0
-112 -203 0
-8 -203 0
-113 -204 0
-9 -204 0
-114 -205 0
-10 -205 0
-115 -206 0
-11 -206 0
-116 -207 0
-12 -207 0
-117 -208 0
-13 -208 0
-210 -259 0
-210 -260 0
-125 -212 0
-8 -212 0
-126 -214 0
-9 -214 0
-127 -216 0
-10 -216 0
-128 -218 0
-11 -218 0
-129 -220 0
-12 -220 0
-130 -222 0
-13 -222 0
-211 260 0
-213 8 0
-215 9 0
-217 10 0
-219 11 0
-221 12 0
-223 13 0
-138 8 0
-15 -138 0
-138 1 0
-139 9 0
-16 -139 0
-139 2 0
-140 10 0
-17 -140 0
-140 3 0
-141 11 0
-18 -141 0
-141 4 0
-142 12 0
-19 -142 0
-142 5 0
-143 13 0
-20 -143 0
-143 6 0
-144 14 0
-144 -226 0
-144 7 0
-146 21 0
-28 -146 0
-146 8 0
-147 22 0
-29 -147 0
-147 9 0
-148 23 0
-30 -148 0
-148 10 0
-149 24 0
-31 -149 0
-149 11 0
-150 25 0
-32 -150 0
-150 12 0
-151 26 0
-33 -151 0
-151 13 0
-152 27 0
-152 -227 0
-152 14 0
-154 34 0
-41 -154 0
-154 8 0
-155 35 0
-42 -155 0
-155 9 0
-156 36 0
-43 -156 0
-156 10 0
-157 37 0
-44 -157 0
-157 11 0
-158 38 0
-45 -158 0
-158 12 0
-159 39 0
-46 -159 0
-159 13 0
-160 40 0
-160 -228 0
-160 14 0
-162 47 0
-54 -162 0
-162 8 0
-163 48 0
-55 -163 0
-163 9 0
-164 49 0
-56 -164 0
-164 10 0
-165 50 0
-57 -165 0
-165 11 0
-166 51 0
-58 -166 0
-166 12 0
-167 52 0
-59 -167 0
-167 13 0
-168 53 0
-168 -229 0
-168 14 0
-170 60 0
-67 -170 0
-170 8 0
-171 61 0
-68 -171 0
-171 9 0
-172 62 0
-69 -172 0
-172 10 0
-173 63 0
-70 -173 0
-173 11 0
-174 64 0
-71 -174 0
-174 12 0
-175 65 0
-72 -175 0
-175 13 0
-176 66 0
-176 -230 0
-176 14 0
-178 73 0
-80 -178 0
-178 8 0
-179 74 0
-81 -179 0
-179 9 0
-180 75 0
-82 -180 0
-180 10 0
-181 76 0
-83 -181 0
-181 11 0
-182 77 0
-84 -182 0
-182 12 0
-183 78 0
-85 -183 0
-183 13 0
-184 79 0
-184 -231 0
-184 14 0
-186 86 0
-93 -186 0
-186 8 0
-187 87 0
-94 -187 0
-187 9 0
-188 88 0
-95 -188 0
-188 10 0
-189 89 0
-96 -189 0
-189 11 0
-190 90 0
-97 -190 0
-190 12 0
-191 91 0
-98 -191 0
-191 13 0
-192 92 0
-192 -232 0
-192 14 0
-194 99 0
-106 -194 0
-194 8 0
-195 100 0
-107 -195 0
-195 9 0
-196 101 0
-108 -196 0
-196 10 0
-197 102 0
-109 -197 0
-197 11 0
-198 103 0
-110 -198 0
-198 12 0
-199 104 0
-111 -199 0
-199 13 0
-200 105 0
-200 -233 0
-200 14 0
-202 112 0
-119 -202 0
-202 8 0
-203 113 0
-120 -203 0
-203 9 0
-204 114 0
-121 -204 0
-204 10 0
-205 115 0
-122 -205 0
-205 11 0
-206 116 0
-123 -206 0
-206 12 0
-207 117 0
-124 -207 0
-207 13 0
-208 118 0
-208 -234 0
-208 14 0
-210 125 0
-132 -210 0
-210 8 0
-212 126 0
-133 -212 0
-212 9 0
-214 127 0
-134 -214 0
-214 10 0
-216 128 0
-135 -216 0
-216 11 0
-218 129 0
-136 -218 0
-218 12 0
-220 130 0
-137 -220 0
-220 13 0
-222 131 0
-222 -235 0
-222 14 0
-8 -211 0
-9 -213 0
-10 -215 0
-11 -217 0
-12 -219 0
-13 -221 0
-14 -223 0
-1 138 250 0
-2 1 139 0
-3 2 140 0
-4 3 141 0
-5 4 142 0
-6 5 143 0
-7 6 144 0
-250 1 0
-1 2 0
-2 3 0
-3 4 0
-4 5 0
-5 6 0
-6 7 0
-8 138 146 154 162 170 178 186 194 202 210 260 0
-9 8 139 147 155 163 171 179 187 195 203 212 0
-10 9 140 148 156 164 172 180 188 196 204 214 0
-11 10 141 149 157 165 173 181 189 197 205 216 0
-12 11 142 150 158 166 174 182 190 198 206 218 0
-13 12 143 151 159 167 175 183 191 199 207 220 0
-14 13 144 152 160 168 176 184 192 200 208 222 0
-260 8 211 0
-8 9 213 0
-9 10 215 0
-10 11 217 0
-11 12 219 0
-12 13 221 0
-13 14 223 0
-15 249 0
-16 15 0
-17 16 0
-18 17 0
-19 18 0
-20 19 0
-226 20 0
-249 15 138 0
-15 16 139 0
-16 17 140 0
-17 18 141 0
-18 19 142 0
-19 20 143 0
-20 144 226 0
-21 146 251 0
-22 21 147 0
-23 22 148 0
-24 23 149 0
-25 24 150 0
-26 25 151 0
-27 26 152 0
-251 21 0
-21 22 0
-22 23 0
-23 24 0
-24 25 0
-25 26 0
-26 27 0
-28 240 0
-29 28 0
-30 29 0
-31 30 0
-32 31 0
-33 32 0
-227 33 0
-240 28 146 0
-28 29 147 0
-29 30 148 0
-30 31 149 0
-31 32 150 0
-32 33 151 0
-33 152 227 0
-34 154 252 0
-35 34 155 0
-36 35 156 0
-37 36 157 0
-38 37 158 0
-39 38 159 0
-40 39 160 0
-252 34 0
-34 35 0
-35 36 0
-36 37 0
-37 38 0
-38 39 0
-39 40 0
-41 241 0
-42 41 0
-43 42 0
-44 43 0
-45 44 0
-46 45 0
-228 46 0
-241 41 154 0
-41 42 155 0
-42 43 156 0
-43 44 157 0
-44 45 158 0
-45 46 159 0
-46 160 228 0
-47 162 253 0
-48 47 163 0
-49 48 164 0
-50 49 165 0
-51 50 166 0
-52 51 167 0
-53 52 168 0
-253 47 0
-47 48 0
-48 49 0
-49 50 0
-50 51 0
-51 52 0
-52 53 0
-54 242 0
-55 54 0
-56 55 0
-57 56 0
-58 57 0
-59 58 0
-229 59 0
-242 54 162 0
-54 55 163 0
-55 56 164 0
-56 57 165 0
-57 58 166 0
-58 59 167 0
-59 168 229 0
-60 170 254 0
-61 60 171 0
-62 61 172 0
-63 62 173 0
-64 63 174 0
-65 64 175 0
-66 65 176 0
-254 60 0
-60 61 0
-61 62 0
-62 63 0
-63 64 0
-64 65 0
-65 66 0
-67 243 0
-68 67 0
-69 68 0
-70 69 0
-71 70 0
-72 71 0
-230 72 0
-243 67 170 0
-67 68 171 0
-68 69 172 0
-69 70 173 0
-70 71 174 0
-71 72 175 0
-72 176 230 0
-73 178 255 0
-74 73 179 0
-75 74 180 0
-76 75 181 0
-77 76 182 0
-78 77 183 0
-79 78 184 0
-255 73 0
-73 74 0
-74 75 0
-75 76 0
-76 77 0
-77 78 0
-78 79 0
-80 244 0
-81 80 0
-82 81 0
-83 82 0
-84 83 0
-85 84 0
-231 85 0
-244 80 178 0
-80 81 179 0
-81 82 180 0
-82 83 181 0
-83 84 182 0
-84 85 183 0
-85 184 231 0
-86 186 256 0
-87 86 187 0
-88 87 188 0
-89 88 189 0
-90 89 190 0
-91 90 191 0
-92 91 192 0
-256 86 0
-86 87 0
-87 88 0
-88 89 0
-89 90 0
-90 91 0
-91 92 0
-93 245 0
-94 93 0
-95 94 0
-96 95 0
-97 96 0
-98 97 0
-232 98 0
-245 93 186 0
-93 94 187 0
-94 95 188 0
-95 96 189 0
-96 97 190 0
-97 98 191 0
-98 192 232 0
-99 194 257 0
-100 99 195 0
-101 100 196 0
-102 101 197 0
-103 102 198 0
-104 103 199 0
-105 104 200 0
-257 99 0
-99 100 0
-100 101 0
-101 102 0
-102 103 0
-103 104 0
-104 105 0
-106 246 0
-107 106 0
-108 107 0
-109 108 0
-110 109 0
-111 110 0
-233 111 0
-246 106 194 0
-106 107 195 0
-107 108 196 0
-108 109 197 0
-109 110 198 0
-110 111 199 0
-111 200 233 0
-112 202 258 0
-113 112 203 0
-114 113 204 0
-115 114 205 0
-116 115 206 0
-117 116 207 0
-118 117 208 0
-258 112 0
-112 113 0
-113 114 0
-114 115 0
-115 116 0
-116 117 0
-117 118 0
-119 247 0
-120 119 0
-121 120 0
-122 121 0
-123 122 0
-124 123 0
-234 124 0
-247 119 202 0
-119 120 203 0
-120 121 204 0
-121 122 205 0
-122 123 206 0
-123 124 207 0
-124 208 234 0
-125 210 259 0
-126 125 212 0
-127 126 214 0
-128 127 216 0
-129 128 218 0
-130 129 220 0
-131 130 222 0
-259 125 0
-125 126 0
-126 127 0
-127 128 0
-128 129 0
-129 130 0
-130 131 0
-132 248 0
-133 132 0
-134 133 0
-135 134 0
-136 135 0
-137 136 0
-235 137 0
-248 132 210 0
-132 133 212 0
-133 134 214 0
-134 135 216 0
-135 136 218 0
-136 137 220 0
-137 222 235 0
-138 -146 0
-139 -147 0
-140 -148 0
-141 -149 0
-142 -150 0
-143 -151 0
-144 -152 0
-145 -153 0
-138 -154 0
-139 -155 0
-140 -156 0
-141 -157 0
-142 -158 0
-143 -159 0
-144 -160 0
-145 -161 0
-138 -162 0
-139 -163 0
-140 -164 0
-141 -165 0
-142 -166 0
-143 -167 0
-144 -168 0
-145 -169 0
-138 -170 0
-139 -171 0
-140 -172 0
-141 -173 0
-142 -174 0
-143 -175 0
-144 -176 0
-145 -177 0
-138 -178 0
-139 -179 0
-140 -180 0
-141 -181 0
-142 -182 0
-143 -183 0
-144 -184 0
-145 -185 0
-138 -186 0
-139 -187 0
-140 -188 0
-141 -189 0
-142 -190 0
-143 -191 0
-144 -192 0
-145 -193 0
-138 -194 0
-139 -195 0
-140 -196 0
-141 -197 0
-142 -198 0
-143 -199 0
-144 -200 0
-145 -201 0
-138 -202 0
-139 -203 0
-140 -204 0
-141 -205 0
-142 -206 0
-143 -207 0
-144 -208 0
-145 -209 0
-138 -210 0
-139 -212 0
-140 -214 0
-141 -216 0
-142 -218 0
-143 -220 0
-144 -222 0
-145 -224 0
-138 -211 0
-139 -213 0
-140 -215 0
-141 -217 0
-142 -219 0
-143 -221 0
-144 -223 0
-145 -225 0
-146 -154 0
-147 -155 0
-148 -156 0
-149 -157 0
-150 -158 0
-151 -159 0
-152 -160 0
-153 -161 0
-146 -162 0
-147 -163 0
-148 -164 0
-149 -165 0
-150 -166 0
-151 -167 0
-152 -168 0
-153 -169 0
-146 -170 0
-147 -171 0
-148 -172 0
-149 -173 0
-150 -174 0
-151 -175 0
-152 -176 0
-153 -177 0
-146 -178 0
-147 -179 0
-148 -180 0
-149 -181 0
-150 -182 0
-151 -183 0
-152 -184 0
-153 -185 0
-146 -186 0
-147 -187 0
-148 -188 0
-149 -189 0
-150 -190 0
-151 -191 0
-152 -192 0
-153 -193 0
-146 -194 0
-147 -195 0
-148 -196 0
-149 -197 0
-150 -198 0
-151 -199 0
-152 -200 0
-153 -201 0
-146 -202 0
-147 -203 0
-148 -204 0
-149 -205 0
-150 -206 0
-151 -207 0
-152 -208 0
-153 -209 0
-146 -210 0
-147 -212 0
-148 -214 0
-149 -216 0
-150 -218 0
-151 -220 0
-152 -222 0
-153 -224 0
-146 -211 0
-147 -213 0
-148 -215 0
-149 -217 0
-150 -219 0
-151 -221 0
-152 -223 0
-153 -225 0
-154 -162 0
-155 -163 0
-156 -164 0
-157 -165 0
-158 -166 0
-159 -167 0
-160 -168 0
-161 -169 0
-154 -170 0
-155 -171 0
-156 -172 0
-157 -173 0
-158 -174 0
-159 -175 0
-160 -176 0
-161 -177 0
-154 -178 0
-155 -179 0
-156 -180 0
-157 -181 0
-158 -182 0
-159 -183 0
-160 -184 0
-161 -185 0
-154 -186 0
-155 -187 0
-156 -188 0
-157 -189 0
-158 -190 0
-159 -191 0
-160 -192 0
-161 -193 0
-154 -194 0
-155 -195 0
-156 -196 0
-157 -197 0
-158 -198 0
-159 -199 0
-160 -200 0
-161 -201 0
-154 -202 0
-155 -203 0
-156 -204 0
-157 -205 0
-158 -206 0
-159 -207 0
-160 -208 0
-161 -209 0
-154 -210 0
-155 -212 0
-156 -214 0
-157 -216 0
-158 -218 0
-159 -220 0
-160 -222 0
-161 -224 0
-154 -211 0
-155 -213 0
-156 -215 0
-157 -217 0
-158 -219 0
-159 -221 0
-160 -223 0
-161 -225 0
-162 -170 0
-163 -171 0
-164 -172 0
-165 -173 0
-166 -174 0
-167 -175 0
-168 -176 0
-169 -177 0
-162 -178 0
-163 -179 0
-164 -180 0
-165 -181 0
-166 -182 0
-167 -183 0
-168 -184 0
-169 -185 0
-162 -186 0
-163 -187 0
-164 -188 0
-165 -189 0
-166 -190 0
-167 -191 0
-168 -192 0
-169 -193 0
-162 -194 0
-163 -195 0
-164 -196 0
-165 -197 0
-166 -198 0
-167 -199 0
-168 -200 0
-169 -201 0
-162 -202 0
-163 -203 0
-164 -204 0
-165 -205 0
-166 -206 0
-167 -207 0
-168 -208 0
-169 -209 0
-162 -210 0
-163 -212 0
-164 -214 0
-165 -216 0
-166 -218 0
-167 -220 0
-168 -222 0
-169 -224 0
-162 -211 0
-163 -213 0
-164 -215 0
-165 -217 0
-166 -219 0
-167 -221 0
-168 -223 0
-169 -225 0
-170 -178 0
-171 -179 0
-172 -180 0
-173 -181 0
-174 -182 0
-175 -183 0
-176 -184 0
-177 -185 0
-170 -186 0
-171 -187 0
-172 -188 0
-173 -189 0
-174 -190 0
-175 -191 0
-176 -192 0
-177 -193 0
-170 -194 0
-171 -195 0
-172 -196 0
-173 -197 0
-174 -198 0
-175 -199 0
-176 -200 0
-177 -201 0
-170 -202 0
-171 -203 0
-172 -204 0
-173 -205 0
-174 -206 0
-175 -207 0
-176 -208 0
-177 -209 0
-170 -210 0
-171 -212 0
-172 -214 0
-173 -216 0
-174 -218 0
-175 -220 0
-176 -222 0
-177 -224 0
-170 -211 0
-171 -213 0
-172 -215 0
-173 -217 0
-174 -219 0
-175 -221 0
-176 -223 0
-177 -225 0
-178 -186 0
-179 -187 0
-180 -188 0
-181 -189 0
-182 -190 0
-183 -191 0
-184 -192 0
-185 -193 0
-178 -194 0
-179 -195 0
-180 -196 0
-181 -197 0
-182 -198 0
-183 -199 0
-184 -200 0
-185 -201 0
-178 -202 0
-179 -203 0
-180 -204 0
-181 -205 0
-182 -206 0
-183 -207 0
-184 -208 0
-185 -209 0
-178 -210 0
-179 -212 0
-180 -214 0
-181 -216 0
-182 -218 0
-183 -220 0
-184 -222 0
-185 -224 0
-178 -211 0
-179 -213 0
-180 -215 0
-181 -217 0
-182 -219 0
-183 -221 0
-184 -223 0
-185 -225 0
-186 -194 0
-187 -195 0
-188 -196 0
-189 -197 0
-190 -198 0
-191 -199 0
-192 -200 0
-193 -201 0
-186 -202 0
-187 -203 0
-188 -204 0
-189 -205 0
-190 -206 0
-191 -207 0
-192 -208 0
-193 -209 0
-186 -210 0
-187 -212 0
-188 -214 0
-189 -216 0
-190 -218 0
-191 -220 0
-192 -222 0
-193 -224 0
-186 -211 0
-187 -213 0
-188 -215 0
-189 -217 0
-190 -219 0
-191 -221 0
-192 -223 0
-193 -225 0
-194 -202 0
-195 -203 0
-196 -204 0
-197 -205 0
-198 -206 0
-199 -207 0
-200 -208 0
-201 -209 0
-194 -210 0
-195 -212 0
-196 -214 0
-197 -216 0
-198 -218 0
-199 -220 0
-200 -222 0
-201 -224 0
-194 -211 0
-195 -213 0
-196 -215 0
-197 -217 0
-198 -219 0
-199 -221 0
-200 -223 0
-201 -225 0
-202 -210 0
-203 -212 0
-204 -214 0
-205 -216 0
-206 -218 0
-207 -220 0
-208 -222 0
-209 -224 0
-202 -211 0
-203 -213 0
-204 -215 0
-205 -217 0
-206 -219 0
-207 -221 0
-208 -223 0
-209 -225 0
-210 -211 0
-212 -213 0
-214 -215 0
-216 -217 0
-218 -219 0
-220 -221 0
-222 -223 0
-224 -225 0
-226 0
-227 0
-228 0
-229 0
-230 0
-231 0
-232 0
-233 0
-234 0
-235 0
